\ Model _copy
\ LP format - for model browsing. Use MPS format to capture full model detail.
\ Signature: 0x67e580b7a75e3f6d
Minimize
 
Subject To
 src_snapshot[중앙선1_4,n43,48]: x[5080,62] + x[22996,62] + x[23044,62]
   + x[23091,62] + x[23137,62] + x[23182,62] + x[23226,62] = 1
 src_snapshot[중앙선2_4,n43,48]: x[4758,68] + x[22996,68] + x[23044,68]
   + x[23091,68] + x[23137,68] + x[23182,68] + x[23226,68] = 1
 dwell_after_cross[중앙선1_4,n43]: x[5080,62] = 0
 dwell_after_cross[중앙선2_4,n43]: x[4758,68] = 0
 nodecap_n43_48: x[22996,0] + x[23044,0] + x[23091,0] + x[23137,0]
   + x[23182,0] + x[23226,0] + x[22996,1] + x[23044,1] + x[23091,1]
   + x[23137,1] + x[23182,1] + x[23226,1] + x[22996,2] + x[23044,2]
   + x[23091,2] + x[23137,2] + x[23182,2] + x[23226,2] + x[22996,3]
   + x[23044,3] + x[23091,3] + x[23137,3] + x[23182,3] + x[23226,3]
   + x[22996,4] + x[23044,4] + x[23091,4] + x[23137,4] + x[23182,4]
   + x[23226,4] + x[22996,5] + x[23044,5] + x[23091,5] + x[23137,5]
   + x[23182,5] + x[23226,5] + x[22996,6] + x[23044,6] + x[23091,6]
   + x[23137,6] + x[23182,6] + x[23226,6] + x[22996,7] + x[23044,7]
   + x[23091,7] + x[23137,7] + x[23182,7] + x[23226,7] + x[22996,8]
   + x[23044,8] + x[23091,8] + x[23137,8] + x[23182,8] + x[23226,8]
   + x[22996,9] + x[23044,9] + x[23091,9] + x[23137,9] + x[23182,9]
   + x[23226,9] + x[22996,10] + x[23044,10] + x[23091,10] + x[23137,10]
   + x[23182,10] + x[23226,10] + x[22996,11] + x[23044,11] + x[23091,11]
   + x[23137,11] + x[23182,11] + x[23226,11] + x[22996,12] + x[23044,12]
   + x[23091,12] + x[23137,12] + x[23182,12] + x[23226,12] + x[22996,13]
   + x[23044,13] + x[23091,13] + x[23137,13] + x[23182,13] + x[23226,13]
   + x[22996,14] + x[23044,14] + x[23091,14] + x[23137,14] + x[23182,14]
   + x[23226,14] + x[22996,15] + x[23044,15] + x[23091,15] + x[23137,15]
   + x[23182,15] + x[23226,15] + x[22996,16] + x[23044,16] + x[23091,16]
   + x[23137,16] + x[23182,16] + x[23226,16] + x[22996,17] + x[23044,17]
   + x[23091,17] + x[23137,17] + x[23182,17] + x[23226,17] + x[22996,18]
   + x[23044,18] + x[23091,18] + x[23137,18] + x[23182,18] + x[23226,18]
   + x[22996,19] + x[23044,19] + x[23091,19] + x[23137,19] + x[23182,19]
   + x[23226,19] + x[22996,20] + x[23044,20] + x[23091,20] + x[23137,20]
   + x[23182,20] + x[23226,20] + x[22996,21] + x[23044,21] + x[23091,21]
   + x[23137,21] + x[23182,21] + x[23226,21] + x[22996,22] + x[23044,22]
   + x[23091,22] + x[23137,22] + x[23182,22] + x[23226,22] + x[22996,23]
   + x[23044,23] + x[23091,23] + x[23137,23] + x[23182,23] + x[23226,23]
   + x[22996,24] + x[23044,24] + x[23091,24] + x[23137,24] + x[23182,24]
   + x[23226,24] + x[22996,25] + x[23044,25] + x[23091,25] + x[23137,25]
   + x[23182,25] + x[23226,25] + x[22996,26] + x[23044,26] + x[23091,26]
   + x[23137,26] + x[23182,26] + x[23226,26] + x[22996,27] + x[23044,27]
   + x[23091,27] + x[23137,27] + x[23182,27] + x[23226,27] + x[22996,28]
   + x[23044,28] + x[23091,28] + x[23137,28] + x[23182,28] + x[23226,28]
   + x[22996,29] + x[23044,29] + x[23091,29] + x[23137,29] + x[23182,29]
   + x[23226,29] + x[22996,30] + x[23044,30] + x[23091,30] + x[23137,30]
   + x[23182,30] + x[23226,30] + x[22996,31] + x[23044,31] + x[23091,31]
   + x[23137,31] + x[23182,31] + x[23226,31] + x[22996,32] + x[23044,32]
   + x[23091,32] + x[23137,32] + x[23182,32] + x[23226,32] + x[22996,33]
   + x[23044,33] + x[23091,33] + x[23137,33] + x[23182,33] + x[23226,33]
   + x[22996,34] + x[23044,34] + x[23091,34] + x[23137,34] + x[23182,34]
   + x[23226,34] + x[22996,35] + x[23044,35] + x[23091,35] + x[23137,35]
   + x[23182,35] + x[23226,35] + x[22996,36] + x[23044,36] + x[23091,36]
   + x[23137,36] + x[23182,36] + x[23226,36] + x[22996,37] + x[23044,37]
   + x[23091,37] + x[23137,37] + x[23182,37] + x[23226,37] + x[22996,38]
   + x[23044,38] + x[23091,38] + x[23137,38] + x[23182,38] + x[23226,38]
   + x[22996,39] + x[23044,39] + x[23091,39] + x[23137,39] + x[23182,39]
   + x[23226,39] + x[22996,40] + x[23044,40] + x[23091,40] + x[23137,40]
   + x[23182,40] + x[23226,40] + x[22996,41] + x[23044,41] + x[23091,41]
   + x[23137,41] + x[23182,41] + x[23226,41] + x[22996,42] + x[23044,42]
   + x[23091,42] + x[23137,42] + x[23182,42] + x[23226,42] + x[22996,43]
   + x[23044,43] + x[23091,43] + x[23137,43] + x[23182,43] + x[23226,43]
   + x[22996,44] + x[23044,44] + x[23091,44] + x[23137,44] + x[23182,44]
   + x[23226,44] + x[22996,45] + x[23044,45] + x[23091,45] + x[23137,45]
   + x[23182,45] + x[23226,45] + x[22996,46] + x[23044,46] + x[23091,46]
   + x[23137,46] + x[23182,46] + x[23226,46] + x[22996,47] + x[23044,47]
   + x[23091,47] + x[23137,47] + x[23182,47] + x[23226,47] + x[22996,48]
   + x[23044,48] + x[23091,48] + x[23137,48] + x[23182,48] + x[23226,48]
   + x[22996,49] + x[23044,49] + x[23091,49] + x[23137,49] + x[23182,49]
   + x[23226,49] + x[22996,50] + x[23044,50] + x[23091,50] + x[23137,50]
   + x[23182,50] + x[23226,50] + x[22996,51] + x[23044,51] + x[23091,51]
   + x[23137,51] + x[23182,51] + x[23226,51] + x[22996,52] + x[23044,52]
   + x[23091,52] + x[23137,52] + x[23182,52] + x[23226,52] + x[22996,53]
   + x[23044,53] + x[23091,53] + x[23137,53] + x[23182,53] + x[23226,53]
   + x[22996,54] + x[23044,54] + x[23091,54] + x[23137,54] + x[23182,54]
   + x[23226,54] + x[22996,55] + x[23044,55] + x[23091,55] + x[23137,55]
   + x[23182,55] + x[23226,55] + x[22996,56] + x[23044,56] + x[23091,56]
   + x[23137,56] + x[23182,56] + x[23226,56] + x[22996,57] + x[23044,57]
   + x[23091,57] + x[23137,57] + x[23182,57] + x[23226,57] + x[22996,58]
   + x[23044,58] + x[23091,58] + x[23137,58] + x[23182,58] + x[23226,58]
   + x[22996,59] + x[23044,59] + x[23091,59] + x[23137,59] + x[23182,59]
   + x[23226,59] + x[22996,60] + x[23044,60] + x[23091,60] + x[23137,60]
   + x[23182,60] + x[23226,60] + x[22996,61] + x[23044,61] + x[23091,61]
   + x[23137,61] + x[23182,61] + x[23226,61] + x[22996,62] + x[23044,62]
   + x[23091,62] + x[23137,62] + x[23182,62] + x[23226,62] + x[22996,63]
   + x[23044,63] + x[23091,63] + x[23137,63] + x[23182,63] + x[23226,63]
   + x[22996,64] + x[23044,64] + x[23091,64] + x[23137,64] + x[23182,64]
   + x[23226,64] + x[22996,65] + x[23044,65] + x[23091,65] + x[23137,65]
   + x[23182,65] + x[23226,65] + x[22996,66] + x[23044,66] + x[23091,66]
   + x[23137,66] + x[23182,66] + x[23226,66] + x[22996,67] + x[23044,67]
   + x[23091,67] + x[23137,67] + x[23182,67] + x[23226,67] + x[22996,68]
   + x[23044,68] + x[23091,68] + x[23137,68] + x[23182,68] + x[23226,68]
   + x[22996,69] + x[23044,69] + x[23091,69] + x[23137,69] + x[23182,69]
   + x[23226,69] + x[22996,70] + x[23044,70] + x[23091,70] + x[23137,70]
   + x[23182,70] + x[23226,70] + x[22996,71] + x[23044,71] + x[23091,71]
   + x[23137,71] + x[23182,71] + x[23226,71] + x[22996,72] + x[23044,72]
   + x[23091,72] + x[23137,72] + x[23182,72] + x[23226,72] + x[22996,73]
   + x[23044,73] + x[23091,73] + x[23137,73] + x[23182,73] + x[23226,73]
   + x[22996,74] + x[23044,74] + x[23091,74] + x[23137,74] + x[23182,74]
   + x[23226,74] + x[22996,75] + x[23044,75] + x[23091,75] + x[23137,75]
   + x[23182,75] + x[23226,75] + x[22996,76] + x[23044,76] + x[23091,76]
   + x[23137,76] + x[23182,76] + x[23226,76] + x[22996,77] + x[23044,77]
   + x[23091,77] + x[23137,77] + x[23182,77] + x[23226,77] + x[22996,78]
   + x[23044,78] + x[23091,78] + x[23137,78] + x[23182,78] + x[23226,78]
   + x[22996,79] + x[23044,79] + x[23091,79] + x[23137,79] + x[23182,79]
   + x[23226,79] + x[22996,80] + x[23044,80] + x[23091,80] + x[23137,80]
   + x[23182,80] + x[23226,80] + x[22996,81] + x[23044,81] + x[23091,81]
   + x[23137,81] + x[23182,81] + x[23226,81] + x[22996,82] + x[23044,82]
   + x[23091,82] + x[23137,82] + x[23182,82] + x[23226,82] + x[22996,83]
   + x[23044,83] + x[23091,83] + x[23137,83] + x[23182,83] + x[23226,83]
   + x[22996,84] + x[23044,84] + x[23091,84] + x[23137,84] + x[23182,84]
   + x[23226,84] + x[22996,85] + x[23044,85] + x[23091,85] + x[23137,85]
   + x[23182,85] + x[23226,85] + x[22996,86] + x[23044,86] + x[23091,86]
   + x[23137,86] + x[23182,86] + x[23226,86] + x[22996,87] + x[23044,87]
   + x[23091,87] + x[23137,87] + x[23182,87] + x[23226,87] + x[22996,88]
   + x[23044,88] + x[23091,88] + x[23137,88] + x[23182,88] + x[23226,88]
   + x[22996,89] + x[23044,89] + x[23091,89] + x[23137,89] + x[23182,89]
   + x[23226,89] + x[22996,90] + x[23044,90] + x[23091,90] + x[23137,90]
   + x[23182,90] + x[23226,90] + x[22996,91] + x[23044,91] + x[23091,91]
   + x[23137,91] + x[23182,91] + x[23226,91] + x[22996,92] + x[23044,92]
   + x[23091,92] + x[23137,92] + x[23182,92] + x[23226,92] + x[22996,93]
   + x[23044,93] + x[23091,93] + x[23137,93] + x[23182,93] + x[23226,93]
   + x[22996,94] + x[23044,94] + x[23091,94] + x[23137,94] + x[23182,94]
   + x[23226,94] + x[22996,95] + x[23044,95] + x[23091,95] + x[23137,95]
   + x[23182,95] + x[23226,95] + x[22996,96] + x[23044,96] + x[23091,96]
   + x[23137,96] + x[23182,96] + x[23226,96] + x[22996,97] + x[23044,97]
   + x[23091,97] + x[23137,97] + x[23182,97] + x[23226,97] + x[22996,98]
   + x[23044,98] + x[23091,98] + x[23137,98] + x[23182,98] + x[23226,98]
   + x[22996,99] + x[23044,99] + x[23091,99] + x[23137,99] + x[23182,99]
   + x[23226,99] + x[22996,100] + x[23044,100] + x[23091,100]
   + x[23137,100] + x[23182,100] + x[23226,100] + x[22996,101]
   + x[23044,101] + x[23091,101] + x[23137,101] + x[23182,101]
   + x[23226,101] + x[22996,102] + x[23044,102] + x[23091,102]
   + x[23137,102] + x[23182,102] + x[23226,102] + x[22996,103]
   + x[23044,103] + x[23091,103] + x[23137,103] + x[23182,103]
   + x[23226,103] + x[22996,104] + x[23044,104] + x[23091,104]
   + x[23137,104] + x[23182,104] + x[23226,104] <= 1
Bounds
Binaries
 x[22996,0] x[23044,0] x[23091,0] x[23137,0] x[23182,0] x[23226,0]
 x[22996,1] x[23044,1] x[23091,1] x[23137,1] x[23182,1] x[23226,1]
 x[22996,2] x[23044,2] x[23091,2] x[23137,2] x[23182,2] x[23226,2]
 x[22996,3] x[23044,3] x[23091,3] x[23137,3] x[23182,3] x[23226,3]
 x[22996,4] x[23044,4] x[23091,4] x[23137,4] x[23182,4] x[23226,4]
 x[22996,5] x[23044,5] x[23091,5] x[23137,5] x[23182,5] x[23226,5]
 x[22996,6] x[23044,6] x[23091,6] x[23137,6] x[23182,6] x[23226,6]
 x[22996,7] x[23044,7] x[23091,7] x[23137,7] x[23182,7] x[23226,7]
 x[22996,8] x[23044,8] x[23091,8] x[23137,8] x[23182,8] x[23226,8]
 x[22996,9] x[23044,9] x[23091,9] x[23137,9] x[23182,9] x[23226,9]
 x[22996,10] x[23044,10] x[23091,10] x[23137,10] x[23182,10] x[23226,10]
 x[22996,11] x[23044,11] x[23091,11] x[23137,11] x[23182,11] x[23226,11]
 x[22996,12] x[23044,12] x[23091,12] x[23137,12] x[23182,12] x[23226,12]
 x[22996,13] x[23044,13] x[23091,13] x[23137,13] x[23182,13] x[23226,13]
 x[22996,14] x[23044,14] x[23091,14] x[23137,14] x[23182,14] x[23226,14]
 x[22996,15] x[23044,15] x[23091,15] x[23137,15] x[23182,15] x[23226,15]
 x[22996,16] x[23044,16] x[23091,16] x[23137,16] x[23182,16] x[23226,16]
 x[22996,17] x[23044,17] x[23091,17] x[23137,17] x[23182,17] x[23226,17]
 x[22996,18] x[23044,18] x[23091,18] x[23137,18] x[23182,18] x[23226,18]
 x[22996,19] x[23044,19] x[23091,19] x[23137,19] x[23182,19] x[23226,19]
 x[22996,20] x[23044,20] x[23091,20] x[23137,20] x[23182,20] x[23226,20]
 x[22996,21] x[23044,21] x[23091,21] x[23137,21] x[23182,21] x[23226,21]
 x[22996,22] x[23044,22] x[23091,22] x[23137,22] x[23182,22] x[23226,22]
 x[22996,23] x[23044,23] x[23091,23] x[23137,23] x[23182,23] x[23226,23]
 x[22996,24] x[23044,24] x[23091,24] x[23137,24] x[23182,24] x[23226,24]
 x[22996,25] x[23044,25] x[23091,25] x[23137,25] x[23182,25] x[23226,25]
 x[22996,26] x[23044,26] x[23091,26] x[23137,26] x[23182,26] x[23226,26]
 x[22996,27] x[23044,27] x[23091,27] x[23137,27] x[23182,27] x[23226,27]
 x[22996,28] x[23044,28] x[23091,28] x[23137,28] x[23182,28] x[23226,28]
 x[22996,29] x[23044,29] x[23091,29] x[23137,29] x[23182,29] x[23226,29]
 x[22996,30] x[23044,30] x[23091,30] x[23137,30] x[23182,30] x[23226,30]
 x[22996,31] x[23044,31] x[23091,31] x[23137,31] x[23182,31] x[23226,31]
 x[22996,32] x[23044,32] x[23091,32] x[23137,32] x[23182,32] x[23226,32]
 x[22996,33] x[23044,33] x[23091,33] x[23137,33] x[23182,33] x[23226,33]
 x[22996,34] x[23044,34] x[23091,34] x[23137,34] x[23182,34] x[23226,34]
 x[22996,35] x[23044,35] x[23091,35] x[23137,35] x[23182,35] x[23226,35]
 x[22996,36] x[23044,36] x[23091,36] x[23137,36] x[23182,36] x[23226,36]
 x[22996,37] x[23044,37] x[23091,37] x[23137,37] x[23182,37] x[23226,37]
 x[22996,38] x[23044,38] x[23091,38] x[23137,38] x[23182,38] x[23226,38]
 x[22996,39] x[23044,39] x[23091,39] x[23137,39] x[23182,39] x[23226,39]
 x[22996,40] x[23044,40] x[23091,40] x[23137,40] x[23182,40] x[23226,40]
 x[22996,41] x[23044,41] x[23091,41] x[23137,41] x[23182,41] x[23226,41]
 x[22996,42] x[23044,42] x[23091,42] x[23137,42] x[23182,42] x[23226,42]
 x[22996,43] x[23044,43] x[23091,43] x[23137,43] x[23182,43] x[23226,43]
 x[22996,44] x[23044,44] x[23091,44] x[23137,44] x[23182,44] x[23226,44]
 x[22996,45] x[23044,45] x[23091,45] x[23137,45] x[23182,45] x[23226,45]
 x[22996,46] x[23044,46] x[23091,46] x[23137,46] x[23182,46] x[23226,46]
 x[22996,47] x[23044,47] x[23091,47] x[23137,47] x[23182,47] x[23226,47]
 x[22996,48] x[23044,48] x[23091,48] x[23137,48] x[23182,48] x[23226,48]
 x[22996,49] x[23044,49] x[23091,49] x[23137,49] x[23182,49] x[23226,49]
 x[22996,50] x[23044,50] x[23091,50] x[23137,50] x[23182,50] x[23226,50]
 x[22996,51] x[23044,51] x[23091,51] x[23137,51] x[23182,51] x[23226,51]
 x[22996,52] x[23044,52] x[23091,52] x[23137,52] x[23182,52] x[23226,52]
 x[22996,53] x[23044,53] x[23091,53] x[23137,53] x[23182,53] x[23226,53]
 x[22996,54] x[23044,54] x[23091,54] x[23137,54] x[23182,54] x[23226,54]
 x[22996,55] x[23044,55] x[23091,55] x[23137,55] x[23182,55] x[23226,55]
 x[22996,56] x[23044,56] x[23091,56] x[23137,56] x[23182,56] x[23226,56]
 x[22996,57] x[23044,57] x[23091,57] x[23137,57] x[23182,57] x[23226,57]
 x[22996,58] x[23044,58] x[23091,58] x[23137,58] x[23182,58] x[23226,58]
 x[22996,59] x[23044,59] x[23091,59] x[23137,59] x[23182,59] x[23226,59]
 x[22996,60] x[23044,60] x[23091,60] x[23137,60] x[23182,60] x[23226,60]
 x[22996,61] x[23044,61] x[23091,61] x[23137,61] x[23182,61] x[23226,61]
 x[5080,62] x[22996,62] x[23044,62] x[23091,62] x[23137,62] x[23182,62]
 x[23226,62] x[22996,63] x[23044,63] x[23091,63] x[23137,63] x[23182,63]
 x[23226,63] x[22996,64] x[23044,64] x[23091,64] x[23137,64] x[23182,64]
 x[23226,64] x[22996,65] x[23044,65] x[23091,65] x[23137,65] x[23182,65]
 x[23226,65] x[22996,66] x[23044,66] x[23091,66] x[23137,66] x[23182,66]
 x[23226,66] x[22996,67] x[23044,67] x[23091,67] x[23137,67] x[23182,67]
 x[23226,67] x[4758,68] x[22996,68] x[23044,68] x[23091,68] x[23137,68]
 x[23182,68] x[23226,68] x[22996,69] x[23044,69] x[23091,69] x[23137,69]
 x[23182,69] x[23226,69] x[22996,70] x[23044,70] x[23091,70] x[23137,70]
 x[23182,70] x[23226,70] x[22996,71] x[23044,71] x[23091,71] x[23137,71]
 x[23182,71] x[23226,71] x[22996,72] x[23044,72] x[23091,72] x[23137,72]
 x[23182,72] x[23226,72] x[22996,73] x[23044,73] x[23091,73] x[23137,73]
 x[23182,73] x[23226,73] x[22996,74] x[23044,74] x[23091,74] x[23137,74]
 x[23182,74] x[23226,74] x[22996,75] x[23044,75] x[23091,75] x[23137,75]
 x[23182,75] x[23226,75] x[22996,76] x[23044,76] x[23091,76] x[23137,76]
 x[23182,76] x[23226,76] x[22996,77] x[23044,77] x[23091,77] x[23137,77]
 x[23182,77] x[23226,77] x[22996,78] x[23044,78] x[23091,78] x[23137,78]
 x[23182,78] x[23226,78] x[22996,79] x[23044,79] x[23091,79] x[23137,79]
 x[23182,79] x[23226,79] x[22996,80] x[23044,80] x[23091,80] x[23137,80]
 x[23182,80] x[23226,80] x[22996,81] x[23044,81] x[23091,81] x[23137,81]
 x[23182,81] x[23226,81] x[22996,82] x[23044,82] x[23091,82] x[23137,82]
 x[23182,82] x[23226,82] x[22996,83] x[23044,83] x[23091,83] x[23137,83]
 x[23182,83] x[23226,83] x[22996,84] x[23044,84] x[23091,84] x[23137,84]
 x[23182,84] x[23226,84] x[22996,85] x[23044,85] x[23091,85] x[23137,85]
 x[23182,85] x[23226,85] x[22996,86] x[23044,86] x[23091,86] x[23137,86]
 x[23182,86] x[23226,86] x[22996,87] x[23044,87] x[23091,87] x[23137,87]
 x[23182,87] x[23226,87] x[22996,88] x[23044,88] x[23091,88] x[23137,88]
 x[23182,88] x[23226,88] x[22996,89] x[23044,89] x[23091,89] x[23137,89]
 x[23182,89] x[23226,89] x[22996,90] x[23044,90] x[23091,90] x[23137,90]
 x[23182,90] x[23226,90] x[22996,91] x[23044,91] x[23091,91] x[23137,91]
 x[23182,91] x[23226,91] x[22996,92] x[23044,92] x[23091,92] x[23137,92]
 x[23182,92] x[23226,92] x[22996,93] x[23044,93] x[23091,93] x[23137,93]
 x[23182,93] x[23226,93] x[22996,94] x[23044,94] x[23091,94] x[23137,94]
 x[23182,94] x[23226,94] x[22996,95] x[23044,95] x[23091,95] x[23137,95]
 x[23182,95] x[23226,95] x[22996,96] x[23044,96] x[23091,96] x[23137,96]
 x[23182,96] x[23226,96] x[22996,97] x[23044,97] x[23091,97] x[23137,97]
 x[23182,97] x[23226,97] x[22996,98] x[23044,98] x[23091,98] x[23137,98]
 x[23182,98] x[23226,98] x[22996,99] x[23044,99] x[23091,99] x[23137,99]
 x[23182,99] x[23226,99] x[22996,100] x[23044,100] x[23091,100]
 x[23137,100] x[23182,100] x[23226,100] x[22996,101] x[23044,101]
 x[23091,101] x[23137,101] x[23182,101] x[23226,101] x[22996,102]
 x[23044,102] x[23091,102] x[23137,102] x[23182,102] x[23226,102]
 x[22996,103] x[23044,103] x[23091,103] x[23137,103] x[23182,103]
 x[23226,103] x[22996,104] x[23044,104] x[23091,104] x[23137,104]
 x[23182,104] x[23226,104]
End
